proyfinal/src/viki/013/experimentInOfficeAgust.take6.output/b8b22eb2-0f41-479a-a59f-1f6383a79767.als.out
Reading from standard input... Use '--help' for help.
============================[ Problem Statistics ]=============================
|                                                                             |
|  Number of variables:         87638                                         |
|  Number of clauses:          161767                                         |
|  Parse time:                   0.03 s                                       |
|                                                                             |
============================[ Search Statistics ]==============================
| Conflicts |          ORIGINAL         |          LEARNT          | Progress |
|           |    Vars  Clauses Literals |    Limit  Clauses Lit/Cl |          |
===============================================================================
|       100 |   63798   110371   275897 |    40469       99     29 | 27.203 % |
|       250 |   52110   110030   275115 |    44516      228     27 | 40.539 % |
|       475 |   52110    76462   192309 |    48967      452     34 | 40.539 % |
|       812 |   52106    76448   192269 |    53864      787     31 | 40.544 % |
|      1318 |   52029    76108   191462 |    59251     1282     46 | 40.632 % |
|      2077 |   51536    75721   190545 |    65176     2024     51 | 41.194 % |
|      3216 |   51134    72895   183573 |    71693     3108     56 | 41.653 % |
|      4924 |   51021    72450   182415 |    78863     4764     60 | 41.782 % |
|      7486 |   50381    70506   177690 |    86749     6619     57 | 42.512 % |
|     11330 |   49957    68185   172104 |    95424     9619     57 | 42.996 % |
|     17096 |   49531    66500   168022 |   104967    15295     54 | 43.482 % |
===============================================================================
restarts              : 63
conflicts             : 18468          (7580 /sec)
decisions             : 57517          (0.00 % random) (23607 /sec)
propagations          : 26209848       (10757569 /sec)
conflict literals     : 941412         (44.86 % deleted)
Memory used           : 31.64 MB
CPU time              : 2.43641 s

UNSATISFIABLE
